895040
0 8 65131
8 33 90444
33 11 39714
11 32 3966
32 25 15457
25 36 14545
36 29 941
29 19 17243
19 31 24201
31 4 3289
4 23 63665
23 17 89851
17 26 12605
26 39 17540
39 18 13572
18 3 26532
3 21 23621
21 12 39393
12 27 6411
27 30 12751
30 24 7859
24 38 4093
38 22 15545
22 37 7448
37 28 744
28 6 22890
6 35 11793
35 5 22446
5 7 34947
7 14 26226
14 2 92317
2 13 30026
13 16 42390
16 15 43848
15 1 57770
1 10 14516
10 34 5412
34 9 6354
9 20 5744
20 0 6578
